solution status: optimal solution found
objective value:                                  133
x0_1                                                1 	(obj:0)
x1_4                                                1 	(obj:0)
x2_3                                                1 	(obj:0)
x3_2                                                1 	(obj:0)
x4_7                                                1 	(obj:0)
x5_8                                                1 	(obj:0)
x6_5                                                1 	(obj:0)
x7_9                                                1 	(obj:0)
x8_6                                                1 	(obj:0)
x9_10                                               1 	(obj:0)
quadobjvar                                        133 	(obj:1)
